(set-logic QF_S)
(declare-fun var0 () String)
(declare-fun var1 () String)
(declare-fun var2 () Int)
(declare-fun var3 () String)
(declare-fun var4 () String)
(declare-fun var5 () Int)
(declare-fun var6 () Int)
(declare-fun var7 () Int)
(assert (str.contains var0 "o"))
(assert (str.contains (str.at var1 var2) (str.replace var3 var4 var1)))
(assert (str.in.re (str.substr var1 var5 var6) (re.inter re.allchar re.allchar)))
(assert (not (>= (str.indexof var0 var4 var7) (str.indexof var3 var3 var5))))
(check-sat)